\ Model Truncated Linear Evaluation
\ LP format - for model browsing. Use MPS format to capture full model detail.
Minimize
  x0[0,1] + x0[0,3] + x0[0,5] + x0[0,7] + x0[0,9] + x0[0,11] + x[1,1]
   + x[2,1] + x[3,1] + x[4,1] + x[5,1] + x[6,1] + x[7,1] + x[8,1] + x[9,1]
   + x[10,1] + x[11,1] + x[12,1] + x[13,1] + x[14,1] + x[15,1] + x[16,1]
   + x[17,1] + x[18,1] + x[19,1] + x[1,3] + x[2,3] + x[3,3] + x[4,3]
   + x[5,3] + x[6,3] + x[7,3] + x[8,3] + x[9,3] + x[10,3] + x[11,3]
   + x[12,3] + x[13,3] + x[14,3] + x[15,3] + x[16,3] + x[17,3] + x[18,3]
   + x[19,3] + x[1,5] + x[2,5] + x[3,5] + x[4,5] + x[5,5] + x[6,5] + x[7,5]
   + x[8,5] + x[9,5] + x[10,5] + x[11,5] + x[12,5] + x[13,5] + x[14,5]
   + x[15,5] + x[16,5] + x[17,5] + x[18,5] + x[19,5] + x[1,7] + x[2,7]
   + x[3,7] + x[4,7] + x[5,7] + x[6,7] + x[7,7] + x[8,7] + x[9,7] + x[10,7]
   + x[11,7] + x[12,7] + x[13,7] + x[14,7] + x[15,7] + x[16,7] + x[17,7]
   + x[18,7] + x[19,7] + x[1,9] + x[2,9] + x[3,9] + x[4,9] + x[5,9]
   + x[6,9] + x[7,9] + x[8,9] + x[9,9] + x[10,9] + x[11,9] + x[12,9]
   + x[13,9] + x[14,9] + x[15,9] + x[16,9] + x[17,9] + x[18,9] + x[19,9]
   + x[1,11] + x[2,11] + x[3,11] + x[4,11] + x[5,11] + x[6,11] + x[7,11]
   + x[8,11] + x[9,11] + x[10,11] + x[11,11] + x[12,11] + x[13,11]
   + x[14,11] + x[15,11] + x[16,11] + x[17,11] + x[18,11] + x[19,11]
Subject To
 R0: x0[0,0] + x0[0,1] + x0[0,2] + x0[0,3] + x0[0,4] + x0[0,5] + x0[0,6]
   + x0[0,7] + x0[0,8] + x0[0,9] + x0[0,10] + x0[0,11] >= 1
 R1: x0[0,0] + x0[0,1] - x[1,1] >= 0
 R2: - x0[0,0] + x0[0,1] + x[1,1] >= 0
 R3: x0[0,0] - x0[0,1] + x[1,1] >= 0
 R4: x0[0,3] + x[1,1] - x[2,1] >= 0
 R5: - x0[0,3] + x[1,1] + x[2,1] >= 0
 R6: x0[0,3] - x[1,1] + x[2,1] >= 0
 R7: x0[0,2] + x0[0,3] - x[1,5] >= 0
 R8: - x0[0,2] + x0[0,3] + x[1,5] >= 0
 R9: x0[0,2] - x0[0,3] + x[1,5] >= 0
 R10: x0[0,1] + x[1,3] - x[2,5] >= 0
 R11: - x0[0,1] + x[1,3] + x[2,5] >= 0
 R12: x0[0,1] - x[1,3] + x[2,5] >= 0
 R13: x0[0,4] + x0[0,5] - x[1,3] >= 0
 R14: - x0[0,4] + x0[0,5] + x[1,3] >= 0
 R15: x0[0,4] - x0[0,5] + x[1,3] >= 0
 R16: x0[0,7] - x[2,3] + x[1,5] >= 0
 R17: - x0[0,7] + x[2,3] + x[1,5] >= 0
 R18: x0[0,7] + x[2,3] - x[1,5] >= 0
 R19: x0[0,6] + x0[0,7] - x[1,9] >= 0
 R20: - x0[0,6] + x0[0,7] + x[1,9] >= 0
 R21: x0[0,6] - x0[0,7] + x[1,9] >= 0
 R22: x0[0,5] + x[1,7] - x[2,9] >= 0
 R23: - x0[0,5] + x[1,7] + x[2,9] >= 0
 R24: x0[0,5] - x[1,7] + x[2,9] >= 0
 R25: x0[0,8] + x0[0,9] - x[1,7] >= 0
 R26: - x0[0,8] + x0[0,9] + x[1,7] >= 0
 R27: x0[0,8] - x0[0,9] + x[1,7] >= 0
 R28: x0[0,11] - x[2,7] + x[1,9] >= 0
 R29: - x0[0,11] + x[2,7] + x[1,9] >= 0
 R30: x0[0,11] + x[2,7] - x[1,9] >= 0
 R31: x0[0,10] + x0[0,11] - x[1,11] >= 0
 R32: - x0[0,10] + x0[0,11] + x[1,11] >= 0
 R33: x0[0,10] - x0[0,11] + x[1,11] >= 0
 R34: x0[0,9] + x[1,11] - x[2,11] >= 0
 R35: - x0[0,9] + x[1,11] + x[2,11] >= 0
 R36: x0[0,9] - x[1,11] + x[2,11] >= 0
 R37: x[2,1] - x[3,1] + x[1,3] >= 0
 R38: x[2,1] + x[3,1] - x[1,3] >= 0
 R39: - x[2,1] + x[3,1] + x[1,3] >= 0
 R40: x[1,1] + x[2,3] - x[3,5] >= 0
 R41: - x[1,1] + x[2,3] + x[3,5] >= 0
 R42: x[1,1] - x[2,3] + x[3,5] >= 0
 R43: - x[3,3] + x[2,5] + x[1,7] >= 0
 R44: x[3,3] + x[2,5] - x[1,7] >= 0
 R45: x[3,3] - x[2,5] + x[1,7] >= 0
 R46: x[1,5] + x[2,7] - x[3,9] >= 0
 R47: - x[1,5] + x[2,7] + x[3,9] >= 0
 R48: x[1,5] - x[2,7] + x[3,9] >= 0
 R49: - x[3,7] + x[2,9] + x[1,11] >= 0
 R50: x[3,7] + x[2,9] - x[1,11] >= 0
 R51: x[3,7] - x[2,9] + x[1,11] >= 0
 R52: x[1,9] + x[2,11] - x[3,11] >= 0
 R53: - x[1,9] + x[2,11] + x[3,11] >= 0
 R54: x[1,9] - x[2,11] + x[3,11] >= 0
 R55: x[3,1] - x[4,1] + x[2,3] >= 0
 R56: x[3,1] + x[4,1] - x[2,3] >= 0
 R57: - x[3,1] + x[4,1] + x[2,3] >= 0
 R58: x[2,1] + x[3,3] - x[4,5] >= 0
 R59: - x[2,1] + x[3,3] + x[4,5] >= 0
 R60: x[2,1] - x[3,3] + x[4,5] >= 0
 R61: - x[4,3] + x[3,5] + x[2,7] >= 0
 R62: x[4,3] + x[3,5] - x[2,7] >= 0
 R63: x[4,3] - x[3,5] + x[2,7] >= 0
 R64: x[2,5] + x[3,7] - x[4,9] >= 0
 R65: - x[2,5] + x[3,7] + x[4,9] >= 0
 R66: x[2,5] - x[3,7] + x[4,9] >= 0
 R67: - x[4,7] + x[3,9] + x[2,11] >= 0
 R68: x[4,7] + x[3,9] - x[2,11] >= 0
 R69: x[4,7] - x[3,9] + x[2,11] >= 0
 R70: x[2,9] + x[3,11] - x[4,11] >= 0
 R71: - x[2,9] + x[3,11] + x[4,11] >= 0
 R72: x[2,9] - x[3,11] + x[4,11] >= 0
 R73: x[4,1] - x[5,1] + x[3,3] >= 0
 R74: x[4,1] + x[5,1] - x[3,3] >= 0
 R75: - x[4,1] + x[5,1] + x[3,3] >= 0
 R76: x[3,1] + x[4,3] - x[5,5] >= 0
 R77: - x[3,1] + x[4,3] + x[5,5] >= 0
 R78: x[3,1] - x[4,3] + x[5,5] >= 0
 R79: - x[5,3] + x[4,5] + x[3,7] >= 0
 R80: x[5,3] + x[4,5] - x[3,7] >= 0
 R81: x[5,3] - x[4,5] + x[3,7] >= 0
 R82: x[3,5] + x[4,7] - x[5,9] >= 0
 R83: - x[3,5] + x[4,7] + x[5,9] >= 0
 R84: x[3,5] - x[4,7] + x[5,9] >= 0
 R85: - x[5,7] + x[4,9] + x[3,11] >= 0
 R86: x[5,7] + x[4,9] - x[3,11] >= 0
 R87: x[5,7] - x[4,9] + x[3,11] >= 0
 R88: x[3,9] + x[4,11] - x[5,11] >= 0
 R89: - x[3,9] + x[4,11] + x[5,11] >= 0
 R90: x[3,9] - x[4,11] + x[5,11] >= 0
 R91: x[5,1] - x[6,1] + x[4,3] >= 0
 R92: x[5,1] + x[6,1] - x[4,3] >= 0
 R93: - x[5,1] + x[6,1] + x[4,3] >= 0
 R94: x[4,1] + x[5,3] - x[6,5] >= 0
 R95: - x[4,1] + x[5,3] + x[6,5] >= 0
 R96: x[4,1] - x[5,3] + x[6,5] >= 0
 R97: - x[6,3] + x[5,5] + x[4,7] >= 0
 R98: x[6,3] + x[5,5] - x[4,7] >= 0
 R99: x[6,3] - x[5,5] + x[4,7] >= 0
 R100: x[4,5] + x[5,7] - x[6,9] >= 0
 R101: - x[4,5] + x[5,7] + x[6,9] >= 0
 R102: x[4,5] - x[5,7] + x[6,9] >= 0
 R103: - x[6,7] + x[5,9] + x[4,11] >= 0
 R104: x[6,7] + x[5,9] - x[4,11] >= 0
 R105: x[6,7] - x[5,9] + x[4,11] >= 0
 R106: x[4,9] + x[5,11] - x[6,11] >= 0
 R107: - x[4,9] + x[5,11] + x[6,11] >= 0
 R108: x[4,9] - x[5,11] + x[6,11] >= 0
 R109: x[6,1] - x[7,1] + x[5,3] >= 0
 R110: x[6,1] + x[7,1] - x[5,3] >= 0
 R111: - x[6,1] + x[7,1] + x[5,3] >= 0
 R112: x[5,1] + x[6,3] - x[7,5] >= 0
 R113: - x[5,1] + x[6,3] + x[7,5] >= 0
 R114: x[5,1] - x[6,3] + x[7,5] >= 0
 R115: - x[7,3] + x[6,5] + x[5,7] >= 0
 R116: x[7,3] + x[6,5] - x[5,7] >= 0
 R117: x[7,3] - x[6,5] + x[5,7] >= 0
 R118: x[5,5] + x[6,7] - x[7,9] >= 0
 R119: - x[5,5] + x[6,7] + x[7,9] >= 0
 R120: x[5,5] - x[6,7] + x[7,9] >= 0
 R121: - x[7,7] + x[6,9] + x[5,11] >= 0
 R122: x[7,7] + x[6,9] - x[5,11] >= 0
 R123: x[7,7] - x[6,9] + x[5,11] >= 0
 R124: x[5,9] + x[6,11] - x[7,11] >= 0
 R125: - x[5,9] + x[6,11] + x[7,11] >= 0
 R126: x[5,9] - x[6,11] + x[7,11] >= 0
 R127: x[7,1] - x[8,1] + x[6,3] >= 0
 R128: x[7,1] + x[8,1] - x[6,3] >= 0
 R129: - x[7,1] + x[8,1] + x[6,3] >= 0
 R130: x[6,1] + x[7,3] - x[8,5] >= 0
 R131: - x[6,1] + x[7,3] + x[8,5] >= 0
 R132: x[6,1] - x[7,3] + x[8,5] >= 0
 R133: - x[8,3] + x[7,5] + x[6,7] >= 0
 R134: x[8,3] + x[7,5] - x[6,7] >= 0
 R135: x[8,3] - x[7,5] + x[6,7] >= 0
 R136: x[6,5] + x[7,7] - x[8,9] >= 0
 R137: - x[6,5] + x[7,7] + x[8,9] >= 0
 R138: x[6,5] - x[7,7] + x[8,9] >= 0
 R139: - x[8,7] + x[7,9] + x[6,11] >= 0
 R140: x[8,7] + x[7,9] - x[6,11] >= 0
 R141: x[8,7] - x[7,9] + x[6,11] >= 0
 R142: x[6,9] + x[7,11] - x[8,11] >= 0
 R143: - x[6,9] + x[7,11] + x[8,11] >= 0
 R144: x[6,9] - x[7,11] + x[8,11] >= 0
 R145: x[8,1] - x[9,1] + x[7,3] >= 0
 R146: x[8,1] + x[9,1] - x[7,3] >= 0
 R147: - x[8,1] + x[9,1] + x[7,3] >= 0
 R148: x[7,1] + x[8,3] - x[9,5] >= 0
 R149: - x[7,1] + x[8,3] + x[9,5] >= 0
 R150: x[7,1] - x[8,3] + x[9,5] >= 0
 R151: - x[9,3] + x[8,5] + x[7,7] >= 0
 R152: x[9,3] + x[8,5] - x[7,7] >= 0
 R153: x[9,3] - x[8,5] + x[7,7] >= 0
 R154: x[7,5] + x[8,7] - x[9,9] >= 0
 R155: - x[7,5] + x[8,7] + x[9,9] >= 0
 R156: x[7,5] - x[8,7] + x[9,9] >= 0
 R157: - x[9,7] + x[8,9] + x[7,11] >= 0
 R158: x[9,7] + x[8,9] - x[7,11] >= 0
 R159: x[9,7] - x[8,9] + x[7,11] >= 0
 R160: x[7,9] + x[8,11] - x[9,11] >= 0
 R161: - x[7,9] + x[8,11] + x[9,11] >= 0
 R162: x[7,9] - x[8,11] + x[9,11] >= 0
 R163: x[9,1] - x[10,1] + x[8,3] >= 0
 R164: x[9,1] + x[10,1] - x[8,3] >= 0
 R165: - x[9,1] + x[10,1] + x[8,3] >= 0
 R166: x[8,1] + x[9,3] - x[10,5] >= 0
 R167: - x[8,1] + x[9,3] + x[10,5] >= 0
 R168: x[8,1] - x[9,3] + x[10,5] >= 0
 R169: - x[10,3] + x[9,5] + x[8,7] >= 0
 R170: x[10,3] + x[9,5] - x[8,7] >= 0
 R171: x[10,3] - x[9,5] + x[8,7] >= 0
 R172: x[8,5] + x[9,7] - x[10,9] >= 0
 R173: - x[8,5] + x[9,7] + x[10,9] >= 0
 R174: x[8,5] - x[9,7] + x[10,9] >= 0
 R175: - x[10,7] + x[9,9] + x[8,11] >= 0
 R176: x[10,7] + x[9,9] - x[8,11] >= 0
 R177: x[10,7] - x[9,9] + x[8,11] >= 0
 R178: x[8,9] + x[9,11] - x[10,11] >= 0
 R179: - x[8,9] + x[9,11] + x[10,11] >= 0
 R180: x[8,9] - x[9,11] + x[10,11] >= 0
 R181: x[10,1] - x[11,1] + x[9,3] >= 0
 R182: x[10,1] + x[11,1] - x[9,3] >= 0
 R183: - x[10,1] + x[11,1] + x[9,3] >= 0
 R184: x[9,1] + x[10,3] - x[11,5] >= 0
 R185: - x[9,1] + x[10,3] + x[11,5] >= 0
 R186: x[9,1] - x[10,3] + x[11,5] >= 0
 R187: - x[11,3] + x[10,5] + x[9,7] >= 0
 R188: x[11,3] + x[10,5] - x[9,7] >= 0
 R189: x[11,3] - x[10,5] + x[9,7] >= 0
 R190: x[9,5] + x[10,7] - x[11,9] >= 0
 R191: - x[9,5] + x[10,7] + x[11,9] >= 0
 R192: x[9,5] - x[10,7] + x[11,9] >= 0
 R193: - x[11,7] + x[10,9] + x[9,11] >= 0
 R194: x[11,7] + x[10,9] - x[9,11] >= 0
 R195: x[11,7] - x[10,9] + x[9,11] >= 0
 R196: x[9,9] + x[10,11] - x[11,11] >= 0
 R197: - x[9,9] + x[10,11] + x[11,11] >= 0
 R198: x[9,9] - x[10,11] + x[11,11] >= 0
 R199: x[11,1] - x[12,1] + x[10,3] >= 0
 R200: x[11,1] + x[12,1] - x[10,3] >= 0
 R201: - x[11,1] + x[12,1] + x[10,3] >= 0
 R202: x[10,1] + x[11,3] - x[12,5] >= 0
 R203: - x[10,1] + x[11,3] + x[12,5] >= 0
 R204: x[10,1] - x[11,3] + x[12,5] >= 0
 R205: - x[12,3] + x[11,5] + x[10,7] >= 0
 R206: x[12,3] + x[11,5] - x[10,7] >= 0
 R207: x[12,3] - x[11,5] + x[10,7] >= 0
 R208: x[10,5] + x[11,7] - x[12,9] >= 0
 R209: - x[10,5] + x[11,7] + x[12,9] >= 0
 R210: x[10,5] - x[11,7] + x[12,9] >= 0
 R211: - x[12,7] + x[11,9] + x[10,11] >= 0
 R212: x[12,7] + x[11,9] - x[10,11] >= 0
 R213: x[12,7] - x[11,9] + x[10,11] >= 0
 R214: x[10,9] + x[11,11] - x[12,11] >= 0
 R215: - x[10,9] + x[11,11] + x[12,11] >= 0
 R216: x[10,9] - x[11,11] + x[12,11] >= 0
 R217: x[12,1] - x[13,1] + x[11,3] >= 0
 R218: x[12,1] + x[13,1] - x[11,3] >= 0
 R219: - x[12,1] + x[13,1] + x[11,3] >= 0
 R220: x[11,1] + x[12,3] - x[13,5] >= 0
 R221: - x[11,1] + x[12,3] + x[13,5] >= 0
 R222: x[11,1] - x[12,3] + x[13,5] >= 0
 R223: - x[13,3] + x[12,5] + x[11,7] >= 0
 R224: x[13,3] + x[12,5] - x[11,7] >= 0
 R225: x[13,3] - x[12,5] + x[11,7] >= 0
 R226: x[11,5] + x[12,7] - x[13,9] >= 0
 R227: - x[11,5] + x[12,7] + x[13,9] >= 0
 R228: x[11,5] - x[12,7] + x[13,9] >= 0
 R229: - x[13,7] + x[12,9] + x[11,11] >= 0
 R230: x[13,7] + x[12,9] - x[11,11] >= 0
 R231: x[13,7] - x[12,9] + x[11,11] >= 0
 R232: x[11,9] + x[12,11] - x[13,11] >= 0
 R233: - x[11,9] + x[12,11] + x[13,11] >= 0
 R234: x[11,9] - x[12,11] + x[13,11] >= 0
 R235: x[13,1] - x[14,1] + x[12,3] >= 0
 R236: x[13,1] + x[14,1] - x[12,3] >= 0
 R237: - x[13,1] + x[14,1] + x[12,3] >= 0
 R238: x[12,1] + x[13,3] - x[14,5] >= 0
 R239: - x[12,1] + x[13,3] + x[14,5] >= 0
 R240: x[12,1] - x[13,3] + x[14,5] >= 0
 R241: - x[14,3] + x[13,5] + x[12,7] >= 0
 R242: x[14,3] + x[13,5] - x[12,7] >= 0
 R243: x[14,3] - x[13,5] + x[12,7] >= 0
 R244: x[12,5] + x[13,7] - x[14,9] >= 0
 R245: - x[12,5] + x[13,7] + x[14,9] >= 0
 R246: x[12,5] - x[13,7] + x[14,9] >= 0
 R247: - x[14,7] + x[13,9] + x[12,11] >= 0
 R248: x[14,7] + x[13,9] - x[12,11] >= 0
 R249: x[14,7] - x[13,9] + x[12,11] >= 0
 R250: x[12,9] + x[13,11] - x[14,11] >= 0
 R251: - x[12,9] + x[13,11] + x[14,11] >= 0
 R252: x[12,9] - x[13,11] + x[14,11] >= 0
 R253: x[14,1] - x[15,1] + x[13,3] >= 0
 R254: x[14,1] + x[15,1] - x[13,3] >= 0
 R255: - x[14,1] + x[15,1] + x[13,3] >= 0
 R256: x[13,1] + x[14,3] - x[15,5] >= 0
 R257: - x[13,1] + x[14,3] + x[15,5] >= 0
 R258: x[13,1] - x[14,3] + x[15,5] >= 0
 R259: - x[15,3] + x[14,5] + x[13,7] >= 0
 R260: x[15,3] + x[14,5] - x[13,7] >= 0
 R261: x[15,3] - x[14,5] + x[13,7] >= 0
 R262: x[13,5] + x[14,7] - x[15,9] >= 0
 R263: - x[13,5] + x[14,7] + x[15,9] >= 0
 R264: x[13,5] - x[14,7] + x[15,9] >= 0
 R265: - x[15,7] + x[14,9] + x[13,11] >= 0
 R266: x[15,7] + x[14,9] - x[13,11] >= 0
 R267: x[15,7] - x[14,9] + x[13,11] >= 0
 R268: x[13,9] + x[14,11] - x[15,11] >= 0
 R269: - x[13,9] + x[14,11] + x[15,11] >= 0
 R270: x[13,9] - x[14,11] + x[15,11] >= 0
 R271: x[15,1] - x[16,1] + x[14,3] >= 0
 R272: x[15,1] + x[16,1] - x[14,3] >= 0
 R273: - x[15,1] + x[16,1] + x[14,3] >= 0
 R274: x[14,1] + x[15,3] - x[16,5] >= 0
 R275: - x[14,1] + x[15,3] + x[16,5] >= 0
 R276: x[14,1] - x[15,3] + x[16,5] >= 0
 R277: - x[16,3] + x[15,5] + x[14,7] >= 0
 R278: x[16,3] + x[15,5] - x[14,7] >= 0
 R279: x[16,3] - x[15,5] + x[14,7] >= 0
 R280: x[14,5] + x[15,7] - x[16,9] >= 0
 R281: - x[14,5] + x[15,7] + x[16,9] >= 0
 R282: x[14,5] - x[15,7] + x[16,9] >= 0
 R283: - x[16,7] + x[15,9] + x[14,11] >= 0
 R284: x[16,7] + x[15,9] - x[14,11] >= 0
 R285: x[16,7] - x[15,9] + x[14,11] >= 0
 R286: x[14,9] + x[15,11] - x[16,11] >= 0
 R287: - x[14,9] + x[15,11] + x[16,11] >= 0
 R288: x[14,9] - x[15,11] + x[16,11] >= 0
 R289: x[16,1] - x[17,1] + x[15,3] >= 0
 R290: x[16,1] + x[17,1] - x[15,3] >= 0
 R291: - x[16,1] + x[17,1] + x[15,3] >= 0
 R292: x[15,1] + x[16,3] - x[17,5] >= 0
 R293: - x[15,1] + x[16,3] + x[17,5] >= 0
 R294: x[15,1] - x[16,3] + x[17,5] >= 0
 R295: - x[17,3] + x[16,5] + x[15,7] >= 0
 R296: x[17,3] + x[16,5] - x[15,7] >= 0
 R297: x[17,3] - x[16,5] + x[15,7] >= 0
 R298: x[15,5] + x[16,7] - x[17,9] >= 0
 R299: - x[15,5] + x[16,7] + x[17,9] >= 0
 R300: x[15,5] - x[16,7] + x[17,9] >= 0
 R301: - x[17,7] + x[16,9] + x[15,11] >= 0
 R302: x[17,7] + x[16,9] - x[15,11] >= 0
 R303: x[17,7] - x[16,9] + x[15,11] >= 0
 R304: x[15,9] + x[16,11] - x[17,11] >= 0
 R305: - x[15,9] + x[16,11] + x[17,11] >= 0
 R306: x[15,9] - x[16,11] + x[17,11] >= 0
 R307: x[17,1] - x[18,1] + x[16,3] >= 0
 R308: x[17,1] + x[18,1] - x[16,3] >= 0
 R309: - x[17,1] + x[18,1] + x[16,3] >= 0
 R310: x[16,1] + x[17,3] - x[18,5] >= 0
 R311: - x[16,1] + x[17,3] + x[18,5] >= 0
 R312: x[16,1] - x[17,3] + x[18,5] >= 0
 R313: - x[18,3] + x[17,5] + x[16,7] >= 0
 R314: x[18,3] + x[17,5] - x[16,7] >= 0
 R315: x[18,3] - x[17,5] + x[16,7] >= 0
 R316: x[16,5] + x[17,7] - x[18,9] >= 0
 R317: - x[16,5] + x[17,7] + x[18,9] >= 0
 R318: x[16,5] - x[17,7] + x[18,9] >= 0
 R319: - x[18,7] + x[17,9] + x[16,11] >= 0
 R320: x[18,7] + x[17,9] - x[16,11] >= 0
 R321: x[18,7] - x[17,9] + x[16,11] >= 0
 R322: x[16,9] + x[17,11] - x[18,11] >= 0
 R323: - x[16,9] + x[17,11] + x[18,11] >= 0
 R324: x[16,9] - x[17,11] + x[18,11] >= 0
 R325: x[18,1] - x[19,1] + x[17,3] >= 0
 R326: x[18,1] + x[19,1] - x[17,3] >= 0
 R327: - x[18,1] + x[19,1] + x[17,3] >= 0
 R328: x[17,1] + x[18,3] - x[19,5] >= 0
 R329: - x[17,1] + x[18,3] + x[19,5] >= 0
 R330: x[17,1] - x[18,3] + x[19,5] >= 0
 R331: - x[19,3] + x[18,5] + x[17,7] >= 0
 R332: x[19,3] + x[18,5] - x[17,7] >= 0
 R333: x[19,3] - x[18,5] + x[17,7] >= 0
 R334: x[17,5] + x[18,7] - x[19,9] >= 0
 R335: - x[17,5] + x[18,7] + x[19,9] >= 0
 R336: x[17,5] - x[18,7] + x[19,9] >= 0
 R337: - x[19,7] + x[18,9] + x[17,11] >= 0
 R338: x[19,7] + x[18,9] - x[17,11] >= 0
 R339: x[19,7] - x[18,9] + x[17,11] >= 0
 R340: x[17,9] + x[18,11] - x[19,11] >= 0
 R341: - x[17,9] + x[18,11] + x[19,11] >= 0
 R342: x[17,9] - x[18,11] + x[19,11] >= 0
 R343: x[19,1] - x[20,1] + x[18,3] >= 0
 R344: x[19,1] + x[20,1] - x[18,3] >= 0
 R345: - x[19,1] + x[20,1] + x[18,3] >= 0
 R346: x[18,1] + x[19,3] - x[20,5] >= 0
 R347: - x[18,1] + x[19,3] + x[20,5] >= 0
 R348: x[18,1] - x[19,3] + x[20,5] >= 0
 R349: - x[20,3] + x[19,5] + x[18,7] >= 0
 R350: x[20,3] + x[19,5] - x[18,7] >= 0
 R351: x[20,3] - x[19,5] + x[18,7] >= 0
 R352: x[18,5] + x[19,7] - x[20,9] >= 0
 R353: - x[18,5] + x[19,7] + x[20,9] >= 0
 R354: x[18,5] - x[19,7] + x[20,9] >= 0
 R355: - x[20,7] + x[19,9] + x[18,11] >= 0
 R356: x[20,7] + x[19,9] - x[18,11] >= 0
 R357: x[20,7] - x[19,9] + x[18,11] >= 0
 R358: x[18,9] + x[19,11] - x[20,11] >= 0
 R359: - x[18,9] + x[19,11] + x[20,11] >= 0
 R360: x[18,9] - x[19,11] + x[20,11] >= 0
Bounds
Binaries
 x0[0,0] x0[0,1] x0[0,2] x0[0,3] x0[0,4] x0[0,5] x0[0,6] x0[0,7] x0[0,8]
 x0[0,9] x0[0,10] x0[0,11] x[1,1] x[2,1] x[3,1] x[4,1] x[5,1] x[6,1] x[7,1]
 x[8,1] x[9,1] x[10,1] x[11,1] x[12,1] x[13,1] x[14,1] x[15,1] x[16,1]
 x[17,1] x[18,1] x[19,1] x[20,1] x[1,3] x[2,3] x[3,3] x[4,3] x[5,3] x[6,3]
 x[7,3] x[8,3] x[9,3] x[10,3] x[11,3] x[12,3] x[13,3] x[14,3] x[15,3]
 x[16,3] x[17,3] x[18,3] x[19,3] x[20,3] x[1,5] x[2,5] x[3,5] x[4,5] x[5,5]
 x[6,5] x[7,5] x[8,5] x[9,5] x[10,5] x[11,5] x[12,5] x[13,5] x[14,5]
 x[15,5] x[16,5] x[17,5] x[18,5] x[19,5] x[20,5] x[1,7] x[2,7] x[3,7]
 x[4,7] x[5,7] x[6,7] x[7,7] x[8,7] x[9,7] x[10,7] x[11,7] x[12,7] x[13,7]
 x[14,7] x[15,7] x[16,7] x[17,7] x[18,7] x[19,7] x[20,7] x[1,9] x[2,9]
 x[3,9] x[4,9] x[5,9] x[6,9] x[7,9] x[8,9] x[9,9] x[10,9] x[11,9] x[12,9]
 x[13,9] x[14,9] x[15,9] x[16,9] x[17,9] x[18,9] x[19,9] x[20,9] x[1,11]
 x[2,11] x[3,11] x[4,11] x[5,11] x[6,11] x[7,11] x[8,11] x[9,11] x[10,11]
 x[11,11] x[12,11] x[13,11] x[14,11] x[15,11] x[16,11] x[17,11] x[18,11]
 x[19,11] x[20,11]
End
